c nombre: 36
c densidad: 0.3
p edges 60 553
e 1 2
e 1 3
e 1 5
e 1 9
e 1 15
e 1 17
e 1 20
e 1 22
e 1 25
e 1 27
e 1 28
e 1 29
e 1 35
e 1 38
e 1 42
e 1 47
e 1 49
e 1 53
e 2 5
e 2 6
e 2 9
e 2 12
e 2 14
e 2 15
e 2 16
e 2 18
e 2 21
e 2 22
e 2 24
e 2 28
e 2 29
e 2 30
e 2 34
e 2 36
e 2 38
e 2 41
e 2 51
e 2 55
e 2 57
e 3 4
e 3 7
e 3 10
e 3 17
e 3 18
e 3 27
e 3 34
e 3 37
e 3 43
e 3 45
e 3 47
e 3 48
e 3 49
e 3 52
e 3 57
e 3 59
e 4 7
e 4 9
e 4 12
e 4 16
e 4 17
e 4 18
e 4 20
e 4 23
e 4 24
e 4 27
e 4 28
e 4 30
e 4 35
e 4 38
e 4 41
e 4 53
e 4 54
e 4 58
e 4 60
e 5 6
e 5 9
e 5 13
e 5 15
e 5 23
e 5 24
e 5 25
e 5 27
e 5 30
e 5 33
e 5 35
e 5 41
e 5 44
e 5 47
e 5 49
e 5 57
e 6 7
e 6 10
e 6 11
e 6 14
e 6 26
e 6 31
e 6 32
e 6 33
e 6 35
e 6 39
e 6 43
e 6 44
e 6 53
e 6 58
e 6 59
e 6 60
e 7 15
e 7 16
e 7 21
e 7 22
e 7 26
e 7 29
e 7 30
e 7 41
e 7 45
e 7 47
e 7 53
e 7 54
e 7 55
e 7 56
e 8 11
e 8 18
e 8 22
e 8 25
e 8 36
e 8 40
e 8 46
e 8 47
e 8 51
e 8 55
e 8 57
e 9 10
e 9 16
e 9 20
e 9 26
e 9 32
e 9 33
e 9 34
e 9 36
e 9 45
e 9 46
e 9 49
e 9 53
e 9 58
e 10 14
e 10 15
e 10 17
e 10 21
e 10 23
e 10 24
e 10 26
e 10 27
e 10 28
e 10 29
e 10 30
e 10 32
e 10 33
e 10 40
e 10 43
e 10 49
e 10 56
e 10 60
e 11 14
e 11 15
e 11 17
e 11 20
e 11 24
e 11 26
e 11 28
e 11 29
e 11 30
e 11 37
e 11 39
e 11 41
e 11 42
e 11 47
e 11 49
e 11 53
e 11 54
e 11 58
e 11 59
e 12 16
e 12 17
e 12 18
e 12 23
e 12 25
e 12 31
e 12 33
e 12 39
e 12 40
e 12 41
e 12 42
e 12 46
e 12 47
e 12 48
e 12 49
e 12 59
e 13 14
e 13 15
e 13 18
e 13 21
e 13 24
e 13 25
e 13 26
e 13 28
e 13 29
e 13 30
e 13 31
e 13 32
e 13 37
e 13 38
e 13 39
e 13 47
e 13 48
e 13 50
e 13 53
e 13 55
e 13 58
e 13 60
e 14 15
e 14 17
e 14 19
e 14 22
e 14 24
e 14 29
e 14 30
e 14 31
e 14 32
e 14 33
e 14 34
e 14 37
e 14 44
e 14 49
e 14 52
e 14 54
e 14 55
e 14 59
e 15 16
e 15 17
e 15 19
e 15 21
e 15 22
e 15 25
e 15 32
e 15 33
e 15 46
e 15 49
e 15 51
e 15 52
e 15 53
e 15 56
e 16 17
e 16 20
e 16 23
e 16 29
e 16 33
e 16 36
e 16 40
e 16 43
e 16 46
e 16 47
e 16 50
e 16 51
e 16 54
e 16 57
e 16 58
e 16 59
e 16 60
e 17 21
e 17 23
e 17 24
e 17 30
e 17 34
e 17 35
e 17 42
e 17 45
e 17 50
e 17 55
e 17 56
e 17 57
e 18 26
e 18 29
e 18 33
e 18 38
e 18 39
e 18 41
e 18 43
e 18 44
e 18 53
e 19 22
e 19 27
e 19 33
e 19 38
e 19 40
e 19 41
e 19 47
e 19 51
e 19 54
e 19 55
e 19 57
e 19 58
e 20 21
e 20 24
e 20 25
e 20 26
e 20 28
e 20 31
e 20 36
e 20 38
e 20 43
e 20 45
e 20 47
e 20 48
e 20 51
e 20 53
e 20 58
e 20 60
e 21 22
e 21 26
e 21 28
e 21 36
e 21 42
e 21 44
e 21 45
e 21 50
e 21 53
e 21 56
e 21 58
e 21 59
e 22 26
e 22 30
e 22 33
e 22 34
e 22 36
e 22 37
e 22 40
e 22 43
e 22 44
e 22 45
e 22 50
e 22 60
e 23 24
e 23 25
e 23 28
e 23 33
e 23 38
e 23 40
e 23 42
e 23 46
e 23 51
e 23 57
e 23 59
e 24 29
e 24 31
e 24 32
e 24 35
e 24 36
e 24 37
e 24 38
e 24 39
e 24 41
e 24 45
e 24 49
e 24 55
e 24 56
e 25 26
e 25 27
e 25 31
e 25 32
e 25 34
e 25 35
e 25 45
e 25 47
e 25 50
e 26 27
e 26 30
e 26 33
e 26 35
e 26 41
e 26 46
e 26 50
e 26 52
e 26 56
e 26 57
e 27 28
e 27 31
e 27 32
e 27 36
e 27 37
e 27 38
e 27 41
e 27 45
e 27 46
e 27 47
e 27 48
e 27 50
e 27 58
e 28 30
e 28 35
e 28 36
e 28 43
e 28 46
e 28 52
e 29 34
e 29 35
e 29 41
e 29 52
e 29 53
e 29 55
e 29 60
e 30 32
e 30 33
e 30 35
e 30 36
e 30 39
e 30 40
e 30 41
e 30 45
e 30 47
e 30 48
e 30 49
e 30 53
e 30 56
e 30 57
e 30 59
e 31 35
e 31 42
e 31 47
e 31 50
e 31 54
e 31 60
e 32 34
e 32 35
e 32 38
e 32 39
e 32 50
e 32 51
e 32 53
e 32 55
e 32 56
e 32 60
e 33 36
e 33 38
e 33 39
e 33 41
e 33 52
e 33 55
e 33 56
e 33 59
e 34 36
e 34 40
e 34 44
e 34 49
e 34 50
e 34 53
e 34 54
e 34 58
e 35 46
e 35 54
e 35 55
e 35 56
e 35 59
e 35 60
e 36 37
e 36 40
e 36 42
e 36 47
e 36 49
e 36 50
e 36 51
e 36 53
e 36 59
e 37 39
e 37 40
e 37 45
e 37 47
e 37 50
e 37 51
e 37 58
e 37 60
e 38 39
e 38 44
e 38 48
e 38 50
e 38 51
e 38 55
e 39 41
e 39 42
e 39 44
e 39 47
e 39 56
e 40 43
e 40 44
e 40 51
e 40 55
e 40 59
e 41 50
e 41 52
e 41 53
e 41 55
e 41 58
e 41 60
e 42 44
e 42 45
e 42 47
e 42 48
e 42 49
e 42 55
e 42 60
e 43 46
e 43 55
e 43 59
e 44 46
e 44 50
e 44 54
e 44 55
e 44 59
e 44 60
e 45 49
e 45 51
e 45 54
e 45 55
e 45 57
e 46 48
e 46 54
e 46 59
e 47 55
e 47 57
e 47 60
e 48 55
e 48 58
e 49 53
e 49 58
e 50 51
e 50 53
e 50 55
e 50 58
e 50 59
e 51 52
e 51 55
e 51 57
e 52 54
e 52 55
e 52 56
e 52 57
e 53 55
e 53 58
e 53 59
e 54 56
e 55 56
e 55 58
e 57 59
e 58 59
